(set-info :category "industrial")
(set-info :status sat)
(declare-fun x1 () (_ BitVec 32))
(declare-fun x2 () (_ BitVec 32))
(declare-fun x3 () (_ BitVec 32))
(declare-fun x4 () (_ BitVec 32))
(declare-fun x5 () (_ BitVec 32))
(declare-fun x6 () (_ BitVec 32))
(declare-fun x7 () (_ BitVec 32))
(declare-fun x8 () (_ BitVec 32))
(declare-fun x9 () (_ BitVec 32))
(declare-fun x10 () (_ BitVec 32))
(declare-fun x11 () (_ BitVec 32))
(declare-fun x12 () (_ BitVec 32))
(declare-fun x13 () (_ BitVec 32))
(declare-fun x14 () (_ BitVec 32))
(declare-fun x15 () (_ BitVec 32))
(declare-fun x16 () (_ BitVec 32))
(declare-fun x17 () (_ BitVec 32))
(declare-fun x18 () (_ BitVec 32))
(declare-fun x19 () (_ BitVec 32))
(declare-fun x20 () (_ BitVec 32))
(declare-fun x21 () (_ BitVec 32))
(declare-fun x22 () (_ BitVec 32))
(declare-fun x23 () (_ BitVec 32))
(declare-fun x24 () (_ BitVec 32))
(declare-fun x25 () (_ BitVec 32))
(declare-fun x26 () (_ BitVec 32))
(declare-fun x27 () (_ BitVec 32))
(declare-fun x28 () (_ BitVec 32))
(declare-fun x29 () (_ BitVec 32))
(declare-fun x30 () (_ BitVec 32))
(declare-fun x31 () (_ BitVec 32))
(declare-fun x32 () (_ BitVec 32))
(declare-fun x33 () (_ BitVec 32))
(declare-fun x34 () (_ BitVec 32))
(declare-fun x35 () (_ BitVec 32))
(declare-fun x36 () (_ BitVec 32))
(declare-fun x37 () (_ BitVec 32))
(declare-fun x38 () (_ BitVec 32))
(declare-fun x39 () (_ BitVec 32))
(declare-fun x40 () (_ BitVec 32))
(declare-fun x41 () (_ BitVec 32))
(declare-fun x42 () (_ BitVec 32))
(declare-fun x43 () (_ BitVec 32))
(declare-fun x44 () (_ BitVec 32))
(declare-fun x45 () (_ BitVec 32))
(declare-fun x46 () (_ BitVec 32))
(declare-fun x47 () (_ BitVec 32))
(declare-fun x48 () (_ BitVec 32))
(declare-fun x49 () (_ BitVec 32))
(declare-fun x50 () (_ BitVec 32))
(declare-fun x51 () (_ BitVec 32))
(declare-fun x52 () (_ BitVec 32))
(declare-fun x53 () (_ BitVec 32))
(declare-fun x54 () (_ BitVec 32))
(declare-fun x55 () (_ BitVec 32))
(declare-fun x56 () (_ BitVec 32))
(declare-fun x57 () (_ BitVec 32))
(declare-fun x58 () (_ BitVec 32))
(declare-fun x59 () (_ BitVec 32))
(declare-fun x60 () (_ BitVec 32))
(declare-fun x61 () (_ BitVec 32))
(declare-fun x62 () (_ BitVec 32))
(declare-fun x63 () (_ BitVec 32))
(declare-fun x64 () (_ BitVec 32))
(declare-fun x65 () (_ BitVec 32))
(declare-fun x66 () (_ BitVec 32))
(declare-fun x67 () (_ BitVec 32))
(declare-fun x68 () (_ BitVec 32))
(declare-fun x69 () (_ BitVec 32))
(declare-fun x70 () (_ BitVec 32))
(declare-fun x71 () (_ BitVec 32))
(declare-fun x72 () (_ BitVec 32))
(declare-fun x73 () (_ BitVec 32))
(declare-fun x74 () (_ BitVec 32))
(declare-fun x75 () (_ BitVec 32))
(declare-fun x76 () (_ BitVec 32))
(declare-fun x77 () (_ BitVec 32))
(declare-fun x78 () (_ BitVec 32))
(declare-fun x79 () (_ BitVec 32))
(declare-fun x80 () (_ BitVec 32))
(declare-fun x81 () (_ BitVec 32))
(declare-fun x82 () (_ BitVec 32))
(declare-fun x83 () (_ BitVec 32))
(declare-fun x84 () (_ BitVec 32))
(declare-fun x85 () (_ BitVec 32))
(declare-fun x86 () (_ BitVec 32))
(declare-fun x87 () (_ BitVec 32))
(assert (bvult x1 (_ bv11 32)))
(assert (bvult x2 (_ bv11 32)))
(assert (bvult x3 (_ bv11 32)))
(assert (bvult x4 (_ bv11 32)))
(assert (bvult x5 (_ bv11 32)))
(assert (bvult x6 (_ bv11 32)))
(assert (bvult x7 (_ bv11 32)))
(assert (bvult x8 (_ bv11 32)))
(assert (bvult x9 (_ bv11 32)))
(assert (bvult x10 (_ bv11 32)))
(assert (bvult x11 (_ bv11 32)))
(assert (bvult x12 (_ bv11 32)))
(assert (bvult x13 (_ bv11 32)))
(assert (bvult x14 (_ bv11 32)))
(assert (bvult x15 (_ bv11 32)))
(assert (bvult x16 (_ bv11 32)))
(assert (bvult x17 (_ bv11 32)))
(assert (bvult x18 (_ bv11 32)))
(assert (bvult x19 (_ bv11 32)))
(assert (bvult x20 (_ bv11 32)))
(assert (bvult x21 (_ bv11 32)))
(assert (bvult x22 (_ bv11 32)))
(assert (bvult x23 (_ bv11 32)))
(assert (bvult x24 (_ bv11 32)))
(assert (bvult x25 (_ bv11 32)))
(assert (bvult x26 (_ bv11 32)))
(assert (bvult x27 (_ bv11 32)))
(assert (bvult x28 (_ bv11 32)))
(assert (bvult x29 (_ bv11 32)))
(assert (bvult x30 (_ bv11 32)))
(assert (bvult x31 (_ bv11 32)))
(assert (bvult x32 (_ bv11 32)))
(assert (bvult x33 (_ bv11 32)))
(assert (bvult x34 (_ bv11 32)))
(assert (bvult x35 (_ bv11 32)))
(assert (bvult x36 (_ bv11 32)))
(assert (bvult x37 (_ bv11 32)))
(assert (bvult x38 (_ bv11 32)))
(assert (bvult x39 (_ bv11 32)))
(assert (bvult x40 (_ bv11 32)))
(assert (bvult x41 (_ bv11 32)))
(assert (bvult x42 (_ bv11 32)))
(assert (bvult x43 (_ bv11 32)))
(assert (bvult x44 (_ bv11 32)))
(assert (bvult x45 (_ bv11 32)))
(assert (bvult x46 (_ bv11 32)))
(assert (bvult x47 (_ bv11 32)))
(assert (bvult x48 (_ bv11 32)))
(assert (bvult x49 (_ bv11 32)))
(assert (bvult x50 (_ bv11 32)))
(assert (bvult x51 (_ bv11 32)))
(assert (bvult x52 (_ bv11 32)))
(assert (bvult x53 (_ bv11 32)))
(assert (bvult x54 (_ bv11 32)))
(assert (bvult x55 (_ bv11 32)))
(assert (bvult x56 (_ bv11 32)))
(assert (bvult x57 (_ bv11 32)))
(assert (bvult x58 (_ bv11 32)))
(assert (bvult x59 (_ bv11 32)))
(assert (bvult x60 (_ bv11 32)))
(assert (bvult x61 (_ bv11 32)))
(assert (bvult x62 (_ bv11 32)))
(assert (bvult x63 (_ bv11 32)))
(assert (bvult x64 (_ bv11 32)))
(assert (bvult x65 (_ bv11 32)))
(assert (bvult x66 (_ bv11 32)))
(assert (bvult x67 (_ bv11 32)))
(assert (bvult x68 (_ bv11 32)))
(assert (bvult x69 (_ bv11 32)))
(assert (bvult x70 (_ bv11 32)))
(assert (bvult x71 (_ bv11 32)))
(assert (bvult x72 (_ bv11 32)))
(assert (bvult x73 (_ bv11 32)))
(assert (bvult x74 (_ bv11 32)))
(assert (bvult x75 (_ bv11 32)))
(assert (bvult x76 (_ bv11 32)))
(assert (bvult x77 (_ bv11 32)))
(assert (bvult x78 (_ bv11 32)))
(assert (bvult x79 (_ bv11 32)))
(assert (bvult x80 (_ bv11 32)))
(assert (bvult x81 (_ bv11 32)))
(assert (bvult x82 (_ bv11 32)))
(assert (bvult x83 (_ bv11 32)))
(assert (bvult x84 (_ bv11 32)))
(assert (bvult x85 (_ bv11 32)))
(assert (bvult x86 (_ bv11 32)))
(assert (bvult x87 (_ bv11 32)))
(assert (not (= x1 x20)))
(assert (not (= x1 x14)))
(assert (not (= x1 x4)))
(assert (not (= x1 x79)))
(assert (not (= x1 x66)))
(assert (not (= x1 x83)))
(assert (not (= x2 x32)))
(assert (not (= x2 x55)))
(assert (not (= x2 x74)))
(assert (not (= x2 x46)))
(assert (not (= x2 x7)))
(assert (not (= x2 x4)))
(assert (not (= x2 x34)))
(assert (not (= x2 x72)))
(assert (not (= x2 x29)))
(assert (not (= x2 x23)))
(assert (not (= x2 x43)))
(assert (not (= x2 x42)))
(assert (not (= x2 x81)))
(assert (not (= x2 x53)))
(assert (not (= x2 x19)))
(assert (not (= x2 x39)))
(assert (not (= x2 x86)))
(assert (not (= x2 x16)))
(assert (not (= x2 x56)))
(assert (not (= x2 x87)))
(assert (not (= x2 x33)))
(assert (not (= x2 x58)))
(assert (not (= x2 x76)))
(assert (not (= x2 x67)))
(assert (not (= x2 x35)))
(assert (not (= x2 x54)))
(assert (not (= x2 x83)))
(assert (not (= x2 x79)))
(assert (not (= x2 x11)))
(assert (not (= x2 x66)))
(assert (not (= x2 x80)))
(assert (not (= x3 x22)))
(assert (not (= x3 x23)))
(assert (not (= x3 x72)))
(assert (not (= x3 x58)))
(assert (not (= x3 x87)))
(assert (not (= x3 x83)))
(assert (not (= x3 x33)))
(assert (not (= x4 x12)))
(assert (not (= x4 x87)))
(assert (not (= x4 x19)))
(assert (not (= x4 x74)))
(assert (not (= x4 x32)))
(assert (not (= x4 x55)))
(assert (not (= x4 x46)))
(assert (not (= x4 x34)))
(assert (not (= x2 x4)))
(assert (not (= x4 x21)))
(assert (not (= x4 x18)))
(assert (not (= x4 x59)))
(assert (not (= x1 x4)))
(assert (not (= x4 x49)))
(assert (not (= x4 x14)))
(assert (not (= x4 x20)))
(assert (not (= x4 x83)))
(assert (not (= x4 x79)))
(assert (not (= x4 x66)))
(assert (not (= x5 x31)))
(assert (not (= x5 x34)))
(assert (not (= x5 x83)))
(assert (not (= x5 x78)))
(assert (not (= x6 x47)))
(assert (not (= x6 x83)))
(assert (not (= x7 x35)))
(assert (not (= x2 x7)))
(assert (not (= x7 x19)))
(assert (not (= x7 x87)))
(assert (not (= x7 x33)))
(assert (not (= x7 x34)))
(assert (not (= x7 x83)))
(assert (not (= x7 x58)))
(assert (not (= x8 x71)))
(assert (not (= x8 x49)))
(assert (not (= x8 x83)))
(assert (not (= x9 x11)))
(assert (not (= x9 x76)))
(assert (not (= x9 x14)))
(assert (not (= x9 x40)))
(assert (not (= x9 x83)))
(assert (not (= x9 x57)))
(assert (not (= x10 x42)))
(assert (not (= x10 x83)))
(assert (not (= x9 x11)))
(assert (not (= x11 x40)))
(assert (not (= x11 x14)))
(assert (not (= x11 x67)))
(assert (not (= x11 x83)))
(assert (not (= x11 x76)))
(assert (not (= x2 x11)))
(assert (not (= x12 x74)))
(assert (not (= x12 x32)))
(assert (not (= x12 x46)))
(assert (not (= x12 x34)))
(assert (not (= x12 x14)))
(assert (not (= x12 x21)))
(assert (not (= x12 x20)))
(assert (not (= x4 x12)))
(assert (not (= x12 x68)))
(assert (not (= x12 x36)))
(assert (not (= x12 x52)))
(assert (not (= x12 x83)))
(assert (not (= x13 x43)))
(assert (not (= x13 x27)))
(assert (not (= x13 x85)))
(assert (not (= x13 x60)))
(assert (not (= x13 x19)))
(assert (not (= x12 x14)))
(assert (not (= x14 x74)))
(assert (not (= x14 x32)))
(assert (not (= x14 x46)))
(assert (not (= x14 x34)))
(assert (not (= x14 x21)))
(assert (not (= x14 x49)))
(assert (not (= x1 x14)))
(assert (not (= x9 x14)))
(assert (not (= x14 x40)))
(assert (not (= x11 x14)))
(assert (not (= x14 x76)))
(assert (not (= x4 x14)))
(assert (not (= x14 x20)))
(assert (not (= x14 x83)))
(assert (not (= x14 x79)))
(assert (not (= x14 x66)))
(assert (not (= x15 x61)))
(assert (not (= x15 x49)))
(assert (not (= x15 x83)))
(assert (not (= x16 x67)))
(assert (not (= x16 x77)))
(assert (not (= x16 x63)))
(assert (not (= x16 x22)))
(assert (not (= x16 x42)))
(assert (not (= x16 x76)))
(assert (not (= x16 x66)))
(assert (not (= x2 x16)))
(assert (not (= x16 x83)))
(assert (not (= x17 x37)))
(assert (not (= x17 x84)))
(assert (not (= x17 x19)))
(assert (not (= x17 x87)))
(assert (not (= x17 x58)))
(assert (not (= x17 x45)))
(assert (not (= x17 x73)))
(assert (not (= x17 x50)))
(assert (not (= x17 x83)))
(assert (not (= x4 x18)))
(assert (not (= x18 x71)))
(assert (not (= x18 x59)))
(assert (not (= x18 x83)))
(assert (not (= x18 x49)))
(assert (not (= x19 x51)))
(assert (not (= x19 x23)))
(assert (not (= x19 x72)))
(assert (not (= x4 x19)))
(assert (not (= x19 x55)))
(assert (not (= x7 x19)))
(assert (not (= x19 x42)))
(assert (not (= x19 x81)))
(assert (not (= x19 x53)))
(assert (not (= x19 x43)))
(assert (not (= x19 x27)))
(assert (not (= x19 x85)))
(assert (not (= x13 x19)))
(assert (not (= x19 x60)))
(assert (not (= x2 x19)))
(assert (not (= x19 x32)))
(assert (not (= x19 x74)))
(assert (not (= x19 x35)))
(assert (not (= x19 x66)))
(assert (not (= x19 x71)))
(assert (not (= x19 x46)))
(assert (not (= x19 x34)))
(assert (not (= x19 x37)))
(assert (not (= x19 x84)))
(assert (not (= x19 x87)))
(assert (not (= x19 x58)))
(assert (not (= x17 x19)))
(assert (not (= x19 x45)))
(assert (not (= x19 x73)))
(assert (not (= x19 x50)))
(assert (not (= x19 x68)))
(assert (not (= x19 x69)))
(assert (not (= x19 x52)))
(assert (not (= x19 x49)))
(assert (not (= x19 x83)))
(assert (not (= x12 x20)))
(assert (not (= x20 x74)))
(assert (not (= x20 x32)))
(assert (not (= x20 x46)))
(assert (not (= x20 x34)))
(assert (not (= x20 x87)))
(assert (not (= x20 x59)))
(assert (not (= x20 x71)))
(assert (not (= x20 x21)))
(assert (not (= x20 x49)))
(assert (not (= x1 x20)))
(assert (not (= x4 x20)))
(assert (not (= x14 x20)))
(assert (not (= x20 x83)))
(assert (not (= x20 x79)))
(assert (not (= x20 x66)))
(assert (not (= x12 x21)))
(assert (not (= x21 x74)))
(assert (not (= x21 x32)))
(assert (not (= x21 x46)))
(assert (not (= x21 x34)))
(assert (not (= x14 x21)))
(assert (not (= x4 x21)))
(assert (not (= x21 x66)))
(assert (not (= x21 x83)))
(assert (not (= x21 x79)))
(assert (not (= x20 x21)))
(assert (not (= x3 x22)))
(assert (not (= x22 x77)))
(assert (not (= x22 x63)))
(assert (not (= x16 x22)))
(assert (not (= x22 x42)))
(assert (not (= x22 x83)))
(assert (not (= x23 x43)))
(assert (not (= x19 x23)))
(assert (not (= x2 x23)))
(assert (not (= x23 x35)))
(assert (not (= x3 x23)))
(assert (not (= x23 x87)))
(assert (not (= x23 x29)))
(assert (not (= x23 x67)))
(assert (not (= x23 x72)))
(assert (not (= x23 x83)))
(assert (not (= x23 x33)))
(assert (not (= x24 x67)))
(assert (not (= x24 x66)))
(assert (not (= x24 x80)))
(assert (not (= x24 x83)))
(assert (not (= x25 x83)))
(assert (not (= x26 x83)))
(assert (not (= x27 x43)))
(assert (not (= x27 x85)))
(assert (not (= x13 x27)))
(assert (not (= x27 x60)))
(assert (not (= x19 x27)))
(assert (not (= x28 x51)))
(assert (not (= x28 x69)))
(assert (not (= x28 x68)))
(assert (not (= x28 x83)))
(assert (not (= x29 x35)))
(assert (not (= x2 x29)))
(assert (not (= x29 x87)))
(assert (not (= x29 x33)))
(assert (not (= x29 x72)))
(assert (not (= x23 x29)))
(assert (not (= x29 x83)))
(assert (not (= x29 x67)))
(assert (not (= x30 x39)))
(assert (not (= x30 x83)))
(assert (not (= x5 x31)))
(assert (not (= x31 x34)))
(assert (not (= x31 x67)))
(assert (not (= x31 x44)))
(assert (not (= x31 x76)))
(assert (not (= x31 x83)))
(assert (not (= x12 x32)))
(assert (not (= x14 x32)))
(assert (not (= x21 x32)))
(assert (not (= x20 x32)))
(assert (not (= x4 x32)))
(assert (not (= x32 x66)))
(assert (not (= x32 x87)))
(assert (not (= x2 x32)))
(assert (not (= x19 x32)))
(assert (not (= x32 x70)))
(assert (not (= x32 x46)))
(assert (not (= x32 x74)))
(assert (not (= x32 x55)))
(assert (not (= x32 x34)))
(assert (not (= x32 x83)))
(assert (not (= x7 x33)))
(assert (not (= x29 x33)))
(assert (not (= x33 x67)))
(assert (not (= x33 x58)))
(assert (not (= x3 x33)))
(assert (not (= x23 x33)))
(assert (not (= x33 x72)))
(assert (not (= x33 x87)))
(assert (not (= x2 x33)))
(assert (not (= x33 x83)))
(assert (not (= x12 x34)))
(assert (not (= x14 x34)))
(assert (not (= x21 x34)))
(assert (not (= x20 x34)))
(assert (not (= x4 x34)))
(assert (not (= x34 x87)))
(assert (not (= x34 x35)))
(assert (not (= x2 x34)))
(assert (not (= x34 x71)))
(assert (not (= x19 x34)))
(assert (not (= x7 x34)))
(assert (not (= x34 x58)))
(assert (not (= x5 x34)))
(assert (not (= x34 x66)))
(assert (not (= x34 x70)))
(assert (not (= x34 x46)))
(assert (not (= x34 x74)))
(assert (not (= x32 x34)))
(assert (not (= x34 x55)))
(assert (not (= x34 x83)))
(assert (not (= x31 x34)))
(assert (not (= x7 x35)))
(assert (not (= x35 x87)))
(assert (not (= x35 x58)))
(assert (not (= x34 x35)))
(assert (not (= x29 x35)))
(assert (not (= x23 x35)))
(assert (not (= x19 x35)))
(assert (not (= x35 x86)))
(assert (not (= x35 x66)))
(assert (not (= x35 x72)))
(assert (not (= x35 x56)))
(assert (not (= x35 x76)))
(assert (not (= x35 x67)))
(assert (not (= x2 x35)))
(assert (not (= x35 x54)))
(assert (not (= x35 x83)))
(assert (not (= x36 x52)))
(assert (not (= x12 x36)))
(assert (not (= x36 x83)))
(assert (not (= x37 x84)))
(assert (not (= x19 x37)))
(assert (not (= x37 x87)))
(assert (not (= x37 x58)))
(assert (not (= x17 x37)))
(assert (not (= x37 x45)))
(assert (not (= x37 x73)))
(assert (not (= x37 x50)))
(assert (not (= x37 x83)))
(assert (not (= x38 x83)))
(assert (not (= x30 x39)))
(assert (not (= x39 x66)))
(assert (not (= x2 x39)))
(assert (not (= x39 x83)))
(assert (not (= x11 x40)))
(assert (not (= x40 x76)))
(assert (not (= x14 x40)))
(assert (not (= x40 x83)))
(assert (not (= x9 x40)))
(assert (not (= x40 x57)))
(assert (not (= x41 x83)))
(assert (not (= x10 x42)))
(assert (not (= x42 x43)))
(assert (not (= x19 x42)))
(assert (not (= x42 x66)))
(assert (not (= x42 x87)))
(assert (not (= x2 x42)))
(assert (not (= x42 x81)))
(assert (not (= x42 x53)))
(assert (not (= x42 x77)))
(assert (not (= x42 x63)))
(assert (not (= x16 x42)))
(assert (not (= x22 x42)))
(assert (not (= x42 x67)))
(assert (not (= x42 x83)))
(assert (not (= x23 x43)))
(assert (not (= x43 x72)))
(assert (not (= x43 x81)))
(assert (not (= x43 x53)))
(assert (not (= x43 x66)))
(assert (not (= x2 x43)))
(assert (not (= x42 x43)))
(assert (not (= x43 x87)))
(assert (not (= x43 x83)))
(assert (not (= x27 x43)))
(assert (not (= x43 x85)))
(assert (not (= x13 x43)))
(assert (not (= x43 x60)))
(assert (not (= x19 x43)))
(assert (not (= x31 x44)))
(assert (not (= x44 x76)))
(assert (not (= x44 x83)))
(assert (not (= x37 x45)))
(assert (not (= x45 x84)))
(assert (not (= x19 x45)))
(assert (not (= x45 x87)))
(assert (not (= x45 x58)))
(assert (not (= x17 x45)))
(assert (not (= x45 x73)))
(assert (not (= x45 x50)))
(assert (not (= x45 x83)))
(assert (not (= x12 x46)))
(assert (not (= x14 x46)))
(assert (not (= x21 x46)))
(assert (not (= x20 x46)))
(assert (not (= x4 x46)))
(assert (not (= x46 x66)))
(assert (not (= x46 x87)))
(assert (not (= x2 x46)))
(assert (not (= x46 x71)))
(assert (not (= x19 x46)))
(assert (not (= x46 x70)))
(assert (not (= x46 x74)))
(assert (not (= x32 x46)))
(assert (not (= x46 x55)))
(assert (not (= x34 x46)))
(assert (not (= x46 x83)))
(assert (not (= x6 x47)))
(assert (not (= x47 x83)))
(assert (not (= x48 x83)))
(assert (not (= x49 x61)))
(assert (not (= x15 x49)))
(assert (not (= x8 x49)))
(assert (not (= x14 x49)))
(assert (not (= x20 x49)))
(assert (not (= x49 x66)))
(assert (not (= x49 x71)))
(assert (not (= x49 x59)))
(assert (not (= x18 x49)))
(assert (not (= x49 x79)))
(assert (not (= x4 x49)))
(assert (not (= x49 x68)))
(assert (not (= x49 x69)))
(assert (not (= x49 x52)))
(assert (not (= x19 x49)))
(assert (not (= x49 x83)))
(assert (not (= x37 x50)))
(assert (not (= x50 x84)))
(assert (not (= x19 x50)))
(assert (not (= x50 x87)))
(assert (not (= x50 x58)))
(assert (not (= x17 x50)))
(assert (not (= x45 x50)))
(assert (not (= x50 x73)))
(assert (not (= x50 x83)))
(assert (not (= x51 x85)))
(assert (not (= x51 x60)))
(assert (not (= x19 x51)))
(assert (not (= x28 x51)))
(assert (not (= x51 x69)))
(assert (not (= x51 x68)))
(assert (not (= x51 x83)))
(assert (not (= x52 x68)))
(assert (not (= x52 x69)))
(assert (not (= x19 x52)))
(assert (not (= x49 x52)))
(assert (not (= x36 x52)))
(assert (not (= x12 x52)))
(assert (not (= x52 x83)))
(assert (not (= x43 x53)))
(assert (not (= x53 x66)))
(assert (not (= x53 x87)))
(assert (not (= x2 x53)))
(assert (not (= x19 x53)))
(assert (not (= x53 x83)))
(assert (not (= x53 x81)))
(assert (not (= x42 x53)))
(assert (not (= x54 x76)))
(assert (not (= x54 x67)))
(assert (not (= x35 x54)))
(assert (not (= x2 x54)))
(assert (not (= x54 x83)))
(assert (not (= x4 x55)))
(assert (not (= x55 x66)))
(assert (not (= x55 x87)))
(assert (not (= x19 x55)))
(assert (not (= x2 x55)))
(assert (not (= x55 x70)))
(assert (not (= x46 x55)))
(assert (not (= x55 x74)))
(assert (not (= x32 x55)))
(assert (not (= x34 x55)))
(assert (not (= x55 x83)))
(assert (not (= x56 x83)))
(assert (not (= x35 x56)))
(assert (not (= x2 x56)))
(assert (not (= x40 x57)))
(assert (not (= x57 x83)))
(assert (not (= x9 x57)))
(assert (not (= x58 x71)))
(assert (not (= x58 x69)))
(assert (not (= x35 x58)))
(assert (not (= x58 x72)))
(assert (not (= x37 x58)))
(assert (not (= x58 x84)))
(assert (not (= x19 x58)))
(assert (not (= x17 x58)))
(assert (not (= x45 x58)))
(assert (not (= x58 x73)))
(assert (not (= x50 x58)))
(assert (not (= x34 x58)))
(assert (not (= x7 x58)))
(assert (not (= x58 x87)))
(assert (not (= x33 x58)))
(assert (not (= x3 x58)))
(assert (not (= x2 x58)))
(assert (not (= x58 x83)))
(assert (not (= x20 x59)))
(assert (not (= x4 x59)))
(assert (not (= x59 x71)))
(assert (not (= x59 x83)))
(assert (not (= x49 x59)))
(assert (not (= x18 x59)))
(assert (not (= x51 x60)))
(assert (not (= x43 x60)))
(assert (not (= x27 x60)))
(assert (not (= x60 x85)))
(assert (not (= x13 x60)))
(assert (not (= x19 x60)))
(assert (not (= x15 x61)))
(assert (not (= x49 x61)))
(assert (not (= x61 x83)))
(assert (not (= x62 x83)))
(assert (not (= x63 x77)))
(assert (not (= x16 x63)))
(assert (not (= x22 x63)))
(assert (not (= x42 x63)))
(assert (not (= x63 x83)))
(assert (not (= x64 x83)))
(assert (not (= x65 x83)))
(assert (not (= x66 x74)))
(assert (not (= x32 x66)))
(assert (not (= x55 x66)))
(assert (not (= x46 x66)))
(assert (not (= x43 x66)))
(assert (not (= x66 x81)))
(assert (not (= x53 x66)))
(assert (not (= x42 x66)))
(assert (not (= x66 x87)))
(assert (not (= x66 x86)))
(assert (not (= x35 x66)))
(assert (not (= x19 x66)))
(assert (not (= x39 x66)))
(assert (not (= x16 x66)))
(assert (not (= x21 x66)))
(assert (not (= x49 x66)))
(assert (not (= x34 x66)))
(assert (not (= x66 x67)))
(assert (not (= x24 x66)))
(assert (not (= x4 x66)))
(assert (not (= x14 x66)))
(assert (not (= x20 x66)))
(assert (not (= x1 x66)))
(assert (not (= x66 x76)))
(assert (not (= x66 x83)))
(assert (not (= x66 x80)))
(assert (not (= x66 x79)))
(assert (not (= x2 x66)))
(assert (not (= x16 x67)))
(assert (not (= x42 x67)))
(assert (not (= x67 x87)))
(assert (not (= x33 x67)))
(assert (not (= x29 x67)))
(assert (not (= x67 x72)))
(assert (not (= x23 x67)))
(assert (not (= x35 x67)))
(assert (not (= x54 x67)))
(assert (not (= x2 x67)))
(assert (not (= x31 x67)))
(assert (not (= x66 x67)))
(assert (not (= x11 x67)))
(assert (not (= x24 x67)))
(assert (not (= x67 x76)))
(assert (not (= x67 x80)))
(assert (not (= x67 x83)))
(assert (not (= x19 x68)))
(assert (not (= x49 x68)))
(assert (not (= x52 x68)))
(assert (not (= x28 x68)))
(assert (not (= x51 x68)))
(assert (not (= x68 x69)))
(assert (not (= x68 x83)))
(assert (not (= x12 x68)))
(assert (not (= x69 x71)))
(assert (not (= x58 x69)))
(assert (not (= x19 x69)))
(assert (not (= x49 x69)))
(assert (not (= x52 x69)))
(assert (not (= x28 x69)))
(assert (not (= x51 x69)))
(assert (not (= x68 x69)))
(assert (not (= x69 x83)))
(assert (not (= x46 x70)))
(assert (not (= x70 x74)))
(assert (not (= x32 x70)))
(assert (not (= x55 x70)))
(assert (not (= x34 x70)))
(assert (not (= x70 x83)))
(assert (not (= x8 x71)))
(assert (not (= x58 x71)))
(assert (not (= x69 x71)))
(assert (not (= x20 x71)))
(assert (not (= x46 x71)))
(assert (not (= x34 x71)))
(assert (not (= x19 x71)))
(assert (not (= x59 x71)))
(assert (not (= x49 x71)))
(assert (not (= x18 x71)))
(assert (not (= x71 x83)))
(assert (not (= x43 x72)))
(assert (not (= x19 x72)))
(assert (not (= x2 x72)))
(assert (not (= x58 x72)))
(assert (not (= x3 x72)))
(assert (not (= x35 x72)))
(assert (not (= x72 x87)))
(assert (not (= x29 x72)))
(assert (not (= x67 x72)))
(assert (not (= x23 x72)))
(assert (not (= x72 x83)))
(assert (not (= x33 x72)))
(assert (not (= x37 x73)))
(assert (not (= x73 x84)))
(assert (not (= x19 x73)))
(assert (not (= x58 x73)))
(assert (not (= x17 x73)))
(assert (not (= x45 x73)))
(assert (not (= x50 x73)))
(assert (not (= x73 x87)))
(assert (not (= x73 x83)))
(assert (not (= x12 x74)))
(assert (not (= x14 x74)))
(assert (not (= x21 x74)))
(assert (not (= x20 x74)))
(assert (not (= x4 x74)))
(assert (not (= x66 x74)))
(assert (not (= x74 x87)))
(assert (not (= x2 x74)))
(assert (not (= x19 x74)))
(assert (not (= x70 x74)))
(assert (not (= x46 x74)))
(assert (not (= x32 x74)))
(assert (not (= x55 x74)))
(assert (not (= x34 x74)))
(assert (not (= x74 x83)))
(assert (not (= x75 x83)))
(assert (not (= x16 x76)))
(assert (not (= x35 x76)))
(assert (not (= x54 x76)))
(assert (not (= x2 x76)))
(assert (not (= x9 x76)))
(assert (not (= x40 x76)))
(assert (not (= x14 x76)))
(assert (not (= x11 x76)))
(assert (not (= x67 x76)))
(assert (not (= x76 x80)))
(assert (not (= x44 x76)))
(assert (not (= x31 x76)))
(assert (not (= x66 x76)))
(assert (not (= x76 x83)))
(assert (not (= x63 x77)))
(assert (not (= x16 x77)))
(assert (not (= x22 x77)))
(assert (not (= x42 x77)))
(assert (not (= x77 x83)))
(assert (not (= x78 x83)))
(assert (not (= x5 x78)))
(assert (not (= x21 x79)))
(assert (not (= x1 x79)))
(assert (not (= x49 x79)))
(assert (not (= x4 x79)))
(assert (not (= x14 x79)))
(assert (not (= x20 x79)))
(assert (not (= x79 x83)))
(assert (not (= x2 x79)))
(assert (not (= x66 x79)))
(assert (not (= x24 x80)))
(assert (not (= x67 x80)))
(assert (not (= x76 x80)))
(assert (not (= x66 x80)))
(assert (not (= x80 x83)))
(assert (not (= x2 x80)))
(assert (not (= x43 x81)))
(assert (not (= x66 x81)))
(assert (not (= x81 x87)))
(assert (not (= x2 x81)))
(assert (not (= x19 x81)))
(assert (not (= x81 x83)))
(assert (not (= x53 x81)))
(assert (not (= x42 x81)))
(assert (not (= x82 x83)))
(assert (not (= x56 x83)))
(assert (not (= x10 x83)))
(assert (not (= x43 x83)))
(assert (not (= x81 x83)))
(assert (not (= x53 x83)))
(assert (not (= x30 x83)))
(assert (not (= x77 x83)))
(assert (not (= x63 x83)))
(assert (not (= x22 x83)))
(assert (not (= x42 x83)))
(assert (not (= x37 x83)))
(assert (not (= x83 x84)))
(assert (not (= x17 x83)))
(assert (not (= x45 x83)))
(assert (not (= x50 x83)))
(assert (not (= x73 x83)))
(assert (not (= x61 x83)))
(assert (not (= x15 x83)))
(assert (not (= x39 x83)))
(assert (not (= x83 x86)))
(assert (not (= x16 x83)))
(assert (not (= x21 x83)))
(assert (not (= x8 x83)))
(assert (not (= x71 x83)))
(assert (not (= x59 x83)))
(assert (not (= x18 x83)))
(assert (not (= x62 x83)))
(assert (not (= x38 x83)))
(assert (not (= x26 x83)))
(assert (not (= x65 x83)))
(assert (not (= x64 x83)))
(assert (not (= x7 x83)))
(assert (not (= x29 x83)))
(assert (not (= x3 x83)))
(assert (not (= x82 x83)))
(assert (not (= x23 x83)))
(assert (not (= x72 x83)))
(assert (not (= x83 x87)))
(assert (not (= x33 x83)))
(assert (not (= x58 x83)))
(assert (not (= x35 x83)))
(assert (not (= x2 x83)))
(assert (not (= x54 x83)))
(assert (not (= x75 x83)))
(assert (not (= x41 x83)))
(assert (not (= x5 x83)))
(assert (not (= x78 x83)))
(assert (not (= x70 x83)))
(assert (not (= x46 x83)))
(assert (not (= x74 x83)))
(assert (not (= x32 x83)))
(assert (not (= x55 x83)))
(assert (not (= x34 x83)))
(assert (not (= x47 x83)))
(assert (not (= x6 x83)))
(assert (not (= x11 x83)))
(assert (not (= x40 x83)))
(assert (not (= x9 x83)))
(assert (not (= x57 x83)))
(assert (not (= x25 x83)))
(assert (not (= x24 x83)))
(assert (not (= x49 x83)))
(assert (not (= x19 x83)))
(assert (not (= x28 x83)))
(assert (not (= x51 x83)))
(assert (not (= x69 x83)))
(assert (not (= x68 x83)))
(assert (not (= x36 x83)))
(assert (not (= x52 x83)))
(assert (not (= x12 x83)))
(assert (not (= x48 x83)))
(assert (not (= x67 x83)))
(assert (not (= x4 x83)))
(assert (not (= x14 x83)))
(assert (not (= x20 x83)))
(assert (not (= x79 x83)))
(assert (not (= x1 x83)))
(assert (not (= x44 x83)))
(assert (not (= x31 x83)))
(assert (not (= x76 x83)))
(assert (not (= x66 x83)))
(assert (not (= x80 x83)))
(assert (not (= x37 x84)))
(assert (not (= x19 x84)))
(assert (not (= x84 x87)))
(assert (not (= x58 x84)))
(assert (not (= x17 x84)))
(assert (not (= x45 x84)))
(assert (not (= x73 x84)))
(assert (not (= x50 x84)))
(assert (not (= x83 x84)))
(assert (not (= x51 x85)))
(assert (not (= x43 x85)))
(assert (not (= x27 x85)))
(assert (not (= x13 x85)))
(assert (not (= x60 x85)))
(assert (not (= x19 x85)))
(assert (not (= x35 x86)))
(assert (not (= x66 x86)))
(assert (not (= x2 x86)))
(assert (not (= x83 x86)))
(assert (not (= x20 x87)))
(assert (not (= x4 x87)))
(assert (not (= x74 x87)))
(assert (not (= x32 x87)))
(assert (not (= x55 x87)))
(assert (not (= x46 x87)))
(assert (not (= x34 x87)))
(assert (not (= x35 x87)))
(assert (not (= x43 x87)))
(assert (not (= x66 x87)))
(assert (not (= x42 x87)))
(assert (not (= x81 x87)))
(assert (not (= x53 x87)))
(assert (not (= x7 x87)))
(assert (not (= x37 x87)))
(assert (not (= x84 x87)))
(assert (not (= x19 x87)))
(assert (not (= x17 x87)))
(assert (not (= x45 x87)))
(assert (not (= x50 x87)))
(assert (not (= x73 x87)))
(assert (not (= x29 x87)))
(assert (not (= x72 x87)))
(assert (not (= x23 x87)))
(assert (not (= x67 x87)))
(assert (not (= x58 x87)))
(assert (not (= x3 x87)))
(assert (not (= x33 x87)))
(assert (not (= x2 x87)))
(assert (not (= x83 x87)))
(check-sat)
(exit)
